50

99 42 175
98 30 255
98 27 179
97 32 283
96 28 192
90 22 326
88 6 170
86 37 266
82 27 283
82 19 301
80 40 254
79 28 154
76 13 305
76 33 333
76 17 212
74 4 325
69 11 224
67 26 173
66 3 257
64 4 206
62 7 354
59 15 353
55 18 157
52 14 202
51 9 357
51 22 287
50 6 345
49 15 233
44 5 244
43 8 327
41 21 322
41 10 360
41 19 313
41 7 176
41 14 186
37 12 230
35 4 306
33 4 178
32 5 153
32 1 317
31 5 250
31 7 189
31 15 199
30 11 359
29 9 294
23 6 337
23 3 333
22 9 228
20 6 332
20 2 322
